NAME : A-n61-k9
COMMENT : (Augerat et al, Min no of trucks: 9, Best value: 1035)
TYPE : CVRP
DIMENSION : 61
EDGE_WEIGHT_TYPE : EUC_2D 
CAPACITY : 100
NODE_COORD_SECTION 
 1 61 37
 2 93 57
 3 15 67
 4 23 43
 5 53 5
 6 13 75
 7 29 73
 8 47 37
 9 23 71
 10 67 45
 11 21 49
 12 93 43
 13 67 13
 14 69 25
 15 53 35
 16 25 39
 17 85 69
 18 81 27
 19 77 79
 20 45 43
 21 31 75
 22 49 99
 23 63 9
 24 47 37
 25 33 47
 26 39 69
 27 49 3
 28 49 87
 29 87 39
 30 37 91
 31 19 33
 32 97 35
 33 31 5
 34 35 25
 35 79 61
 36 73 73
 37 35 95
 38 5 43
 39 19 45
 40 71 39
 41 35 63
 42 27 73
 43 31 21
 44 47 9
 45 87 45
 46 1 49
 47 1 77
 48 63 73
 49 79 71
 50 21 55
 51 65 23
 52 65 47
 53 97 23
 54 23 71
 55 5 81
 56 53 27
 57 57 85
 58 89 23
 59 51 65
 60 13 49
 61 91 41
DEMAND_SECTION 
1 0 
2 23 
3 17 
4 12 
5 6 
6 22 
7 3 
8 24 
9 24 
10 11 
11 7 
12 12 
13 8 
14 14 
15 20 
16 16 
17 16 
18 4 
19 9 
20 18 
21 14 
22 10 
23 19 
24 22 
25 19 
26 9 
27 18 
28 2 
29 18 
30 11 
31 19 
32 18 
33 15 
34 4 
35 12 
36 8 
37 18 
38 12 
39 72 
40 2 
41 5 
42 14 
43 11 
44 19 
45 16 
46 19 
47 3 
48 12 
49 10 
50 20 
51 7 
52 13 
53 16 
54 23 
55 22 
56 18 
57 6 
58 12 
59 27 
60 9 
61 15 
DEPOT_SECTION 
 1  
 -1  
EOF 
